
(set-logic ALL) 

(declare-datatype MyList ((Nil) (Cons (head Real) (tail MyList)) )) 
(declare-fun l0 () MyList) 
(declare-fun l1 () MyList) 
(declare-fun l2 () MyList) 
(declare-fun l3 () MyList) 
(declare-fun i0 () Real) 
(declare-fun i1 () Real) 
(assert (and (is-Cons Nil) (is-Cons Nil) (= l2 Nil) (is-Cons Nil)) )
(assert (not (= l0 l0)) )
(assert (or (= l3 l3) (is-Cons l1) (= l2 Nil)) )
(assert (and (= l1 Nil) (= l2 l0) (is-Nil Nil)) )
(assert (is-Cons Nil) )
(assert (or (= l1 l0) (= l3 l3)) )
(assert (and (= l1 l3) (= l3 l2) (= l2 Nil)) )
(assert (or (is-Nil Nil) (= l1 Nil) (is-Nil l0) (= l0 Nil)) )
(check-sat)
